 proc title ; proc chmatrix occasions= 59 groups= 6 etype= Nest Nodes= 101 icovar = 1 ICMeans
 NoHist hist= 465 ; time interval 1 1 1 1 1 1 1 1 1 1 1 1 1 1 1 1 1 1 1 1 1 1 1 1 1 1 1 1 1 1 1 1 1
 1 1 1 1 1 1 1 1 1 1 1 1 1 1 1 1 1 1 1 1 1 1 1 1 1 1 ; icovariates Init ;
glabel(1)=Year2019;
glabel(2)=Year2021;
glabel(3)=Year2022;
glabel(4)=Year2023;
glabel(5)=Year2024;
glabel(6)=Year2025;
Nest Survival Group = 1 ;
10 23 23 0 1 -6;
2 21 21 0 1 -8;
3 3 16 1 1 -4;
4 4 17 1 1 -3;
4 4 24 1 1 -3;
11 27 27 0 1 -2;
7 33 33 1 1 -1;
7 7 25 1 1 8;
7 23 23 0 1 -6;
7 30 30 0 1 1;
7 26 32 1 1 -1;
7 7 18 1 1 0;
7 7 18 1 1 3;
7 29 29 0 1 0;
7 27 27 0 1 -2;
7 24 24 0 1 -5;
7 26 32 1 1 -2;
7 28 28 0 1 -1;
9 30 30 0 1 1;
9 34 34 1 1 -4;
10 30 30 0 1 1;
10 10 23 1 1 3;
10 31 31 0 1 2;
10 25 25 0 1 -4;
11 29 29 0 1 0;
11 30 30 0 1 1;
11 33 33 0 1 4;
12 27 27 0 1 -2;
12 12 20 1 1 5;
20 27 28 1 1 7;
20 33 33 0 1 4;
22 35 35 0 1 6;
24 35 35 0 1 6;
26 26 27 1 1 -2;
9 20 20 0 1 -9;
9 26 26 0 1 -3;
2 29 29 0 1 0;
2 20 22 1 1 -6;
3 3 24 1 1 0;
3 27 27 0 1 -2;
7 7 28 1 1 -1;
23 27 27 0 1 -2;
24 29 29 0 1 0;
15 15 24 1 1 3;
15 15 24 1 1 5;
15 33 33 0 1 4;
16 28 28 0 1 -1;
15 34 34 0 1 5;
15 31 31 0 1 2;
16 31 31 0 1 2;
16 27 27 0 1 -2;
16 26 26 0 1 -3;
16 30 30 0 1 1;
16 32 32 0 1 3;
16 34 34 0 1 5;
16 30 30 0 1 1;
16 20 20 0 1 -9;
16 16 28 1 1 -1;
18 27 27 0 1 -2;
19 23 23 0 1 -6;
19 26 26 0 1 -3;
19 32 33 1 1 6;
19 25 25 0 1 -4;
19 21 21 0 1 -8;
20 31 31 0 1 2;
21 24 24 0 1 -5;
21 23 23 1 1 14;
21 28 28 0 1 -1;
22 22 32 1 1 15;
25 25 28 1 1 2;
25 35 35 0 1 6;
19 21 21 0 1 -8;
19 33 33 0 1 4;
19 19 20 1 1 11;
20 27 27 0 1 -2;
20 30 30 0 1 1;
20 28 28 0 1 -1;
20 25 25 0 1 -4;
20 31 31 0 1 2;
21 35 35 0 1 6;
25 29 32 1 1 3;
9 25 25 0 1 -4;
9 9 18 1 1 -4;
7 7 26 1 1 0;
7 23 23 0 1 -6;
9 9 32 1 1 2;
10 10 28 1 1 3;
11 11 29 1 1 4;
12 31 31 0 1 2;
20 31 31 0 1 2;
10 25 25 0 1 -4;
7 28 28 0 1 -1;
7 27 27 0 1 -2;
10 25 27 1 1 -6;
10 30 30 0 1 1;
10 31 31 0 1 2;
9 35 35 0 1 6;
11 35 35 0 1 6;
12 12 26 1 1 -1;
15 31 31 0 1 2;
18 35 35 0 1 6;
21 27 27 0 1 -2;
24 24 28 1 1 4;
31 32 32 0 1 3;
15 35 35 0 1 6;
16 26 26 0 1 -3;
18 24 24 0 1 -5;
18 27 27 0 1 -2;
19 27 27 0 1 -2;
19 30 30 0 1 1;
19 34 34 0 1 5;
20 31 31 0 1 2;
20 34 34 0 1 5;
20 27 27 0 1 -2;
25 27 27 0 1 -2;
24 34 34 0 1 5;
26 29 29 0 1 0;
28 34 34 0 1 5;
1 28 28 0 1 -1;
3 20 20 0 1 -9;
3 31 31 0 1 2;
3 24 24 1 1 -6;
7 27 27 0 1 -2;
7 31 32 1 1 -2;
7 28 28 0 1 -1;
7 29 29 0 1 0;
7 29 29 0 1 0;
7 24 24 0 1 -5;
7 27 27 0 1 -2;
7 23 23 0 1 -6;
8 28 28 0 1 -1;
9 25 26 1 1 -2;
10 25 25 0 1 -4;
10 30 30 0 1 1;
17 33 33 0 1 4;
19 34 34 0 1 5;
30 35 35 0 1 6;
2 22 22 0 1 -7;
3 22 22 0 1 -7;
4 23 23 0 1 -6;
7 29 29 0 1 0;
7 29 29 0 1 0;
7 8 24 1 1 -5;
7 21 41 1 1 -4;
7 31 31 0 1 2;
10 10 28 1 1 3;
10 31 31 0 1 2;
20 34 34 0 1 5;
11 29 34 1 1 -2;
11 19 19 0 1 -10;
11 26 26 0 1 -3;
12 34 34 0 1 5;
12 34 34 0 1 5;
15 31 34 1 1 5;
15 29 30 1 1 4;
15 15 21 1 1 8;
15 21 30 1 1 9;
15 15 33 1 1 2;
15 33 33 0 1 4;
19 25 25 0 1 -4;
22 28 28 0 1 -1;
22 22 35 1 1 16;
23 34 34 0 1 5;
23 26 26 0 1 -3;
Nest Survival Group = 2 ;
11 11 31 1 1 -2;
12 29 30 1 1 -1;
13 31 31 0 1 -4;
13 41 41 0 1 6;
13 33 33 0 1 -2;
14 37 37 0 1 2;
14 36 36 0 1 1;
14 23 23 0 1 -12;
14 36 36 0 1 1;
17 37 37 0 1 2;
17 34 34 0 1 -1;
18 24 24 0 1 -11;
18 35 35 0 1 0;
19 38 38 0 1 3;
22 25 25 0 1 -10;
22 26 29 1 1 -10;
22 36 36 0 1 1;
24 35 35 0 1 0;
24 24 32 1 1 -2;
26 39 39 0 1 4;
26 40 40 0 1 5;
26 32 32 0 1 -3;
26 34 34 0 1 -1;
27 32 32 0 1 -3;
13 37 37 0 1 2;
14 37 37 0 1 2;
12 12 18 1 1 -1;
17 39 39 0 1 4;
17 17 32 1 1 7;
18 31 31 0 1 -4;
19 39 39 0 1 4;
19 42 42 0 1 7;
6 11 33 1 1 -2;
10 10 14 1 1 -3;
10 29 29 0 1 -6;
11 38 38 0 1 3;
12 31 31 0 1 -4;
14 38 38 0 1 3;
14 19 31 1 1 -1;
17 39 39 0 1 4;
26 39 39 0 1 4;
30 39 39 0 1 4;
33 40 40 0 1 5;
11 29 29 0 1 -6;
12 29 30 1 1 -1;
12 12 30 1 1 -1;
13 36 36 0 1 1;
13 32 32 0 1 -3;
15 35 35 0 1 0;
15 30 30 0 1 -5;
17 37 37 0 1 2;
17 28 28 0 1 -7;
18 38 38 0 1 3;
19 41 41 0 1 6;
23 40 40 0 1 5;
19 42 42 0 1 7;
22 42 42 0 1 7;
22 40 40 0 1 5;
22 31 31 0 1 -4;
25 28 28 0 1 -7;
26 36 36 0 1 1;
26 38 38 0 1 3;
27 37 37 0 1 2;
27 39 39 0 1 4;
29 42 42 0 1 7;
14 36 36 0 1 1;
14 14 29 1 1 0;
15 38 38 0 1 3;
17 40 40 0 1 5;
22 34 34 0 1 -1;
22 33 35 1 1 -1;
8 8 14 1 1 -5;
9 30 30 0 1 -5;
11 33 33 0 1 -2;
12 35 35 0 1 0;
12 35 35 0 1 0;
13 35 35 0 1 0;
13 33 33 0 1 -2;
13 13 30 1 1 0;
13 33 33 0 1 -2;
17 29 30 1 1 3;
17 33 33 0 1 -2;
17 29 29 0 1 -6;
17 29 29 0 1 -6;
18 34 34 0 1 -1;
18 41 41 0 1 6;
18 18 29 1 1 8;
19 35 35 0 1 0;
22 28 28 0 1 -7;
22 37 37 0 1 2;
22 40 40 0 1 5;
22 28 28 0 1 -7;
22 28 28 0 1 -7;
22 36 36 0 1 1;
22 32 32 0 1 -3;
22 33 33 0 1 -2;
24 33 33 0 1 -2;
26 42 42 0 1 7;
27 34 34 0 1 -1;
30 37 37 0 1 2;
31 42 42 0 1 7;
34 35 35 0 1 0;
Nest Survival Group = 3 ;
9 9 10 1 1 -6;
17 40 40 0 1 3;
17 36 36 0 1 -1;
21 21 22 1 1 4;
25 38 38 0 1 1;
30 33 33 0 1 -4;
16 40 40 0 1 3;
16 32 32 0 1 -5;
11 14 15 1 1 -4;
8 10 11 1 1 -4;
21 22 23 1 1 -3;
22 22 40 1 1 -2;
26 27 28 1 1 11;
13 13 18 1 1 0;
17 33 34 1 1 0;
17 17 18 1 1 3;
18 26 27 1 1 1;
19 37 37 0 1 0;
23 23 24 1 1 -3;
23 35 35 0 1 -2;
24 34 35 1 1 -4;
34 39 40 1 1 19;
35 40 40 0 1 3;
9 10 11 1 1 -7;
12 34 34 0 1 -3;
15 19 20 1 1 0;
20 21 22 1 1 -5;
21 41 41 0 1 4;
34 41 41 0 1 4;
5 11 12 1 1 -22;
16 32 33 1 1 -4;
20 22 23 1 1 5;
20 35 36 1 1 5;
21 21 22 1 1 0;
12 12 13 1 1 -3;
12 12 13 1 1 -4;
25 40 40 0 1 3;
28 29 30 1 1 11;
Nest Survival Group = 4 ;
18 34 34 0 1 -2;
20 36 36 0 1 0;
20 41 41 0 1 5;
21 36 36 0 1 0;
21 34 37 1 1 4;
21 36 36 0 1 0;
21 34 34 0 1 -2;
21 32 32 0 1 -4;
26 26 30 1 1 -6;
26 34 38 1 1 1;
28 48 48 0 1 12;
28 42 42 0 1 6;
28 32 32 0 1 -4;
30 42 42 0 1 6;
18 32 32 0 1 -4;
19 34 34 0 1 -2;
19 19 31 1 1 -11;
20 33 33 0 1 -3;
20 44 44 0 1 8;
32 41 41 0 1 5;
7 7 14 1 1 -7;
7 7 14 1 1 -8;
11 34 34 0 1 -2;
11 11 28 1 1 -3;
12 31 35 1 1 -4;
14 14 28 1 1 0;
14 36 36 0 1 0;
17 36 36 0 1 0;
19 29 29 0 1 -7;
33 37 37 0 1 1;
19 38 38 0 1 1;
19 34 34 0 1 -2;
19 34 34 0 1 -2;
20 43 43 0 1 7;
20 32 32 0 1 -4;
21 21 24 1 1 7;
21 41 41 0 1 5;
21 41 41 0 1 5;
24 41 41 0 1 5;
25 34 34 0 1 -2;
25 25 27 1 1 -7;
25 41 41 0 1 5;
27 38 38 0 1 2;
27 38 38 0 1 2;
28 35 35 0 1 -1;
28 42 42 0 1 6;
30 32 32 0 1 -4;
34 37 37 0 1 1;
35 36 36 0 1 0;
41 45 45 0 1 9;
41 44 44 0 1 8;
9 9 28 1 1 -5;
14 34 34 0 1 -2;
16 16 27 1 1 -2;
16 37 37 0 1 1;
17 17 27 1 1 3;
19 35 35 0 1 -1;
19 19 28 1 1 -4;
19 19 21 1 1 5;
25 42 46 1 1 10;
26 33 33 0 1 -3;
29 39 39 0 1 3;
33 42 42 0 1 6;
36 42 42 0 1 6;
7 7 24 1 1 -7;
12 28 31 1 1 -4;
14 34 34 0 1 -2;
16 33 37 1 1 0;
19 19 35 1 1 -4;
19 37 37 0 1 1;
18 37 37 0 1 1;
20 36 36 0 1 0;
20 32 32 0 1 -4;
21 34 34 0 1 -2;
21 37 37 0 1 1;
23 23 28 1 1 -4;
25 35 35 0 1 -1;
26 41 41 0 1 5;
27 34 34 0 1 -2;
32 47 47 0 1 11;
32 46 46 0 1 10;
Nest Survival Group = 5 ;
18 18 38 1 1 -4;
22 46 46 0 1 4;
22 39 39 0 1 -3;
23 40 40 0 1 -2;
24 44 44 0 1 2;
25 43 43 0 1 1;
25 35 35 0 1 -7;
25 38 38 0 1 -4;
26 33 33 0 1 -9;
28 36 36 0 1 -6;
30 43 43 0 1 1;
30 41 41 0 1 -1;
33 36 36 0 1 -6;
35 59 59 0 1 17;
35 47 47 0 1 5;
20 37 37 0 1 -5;
20 41 41 0 1 -1;
20 40 40 0 1 -2;
23 40 40 0 1 -2;
23 23 30 1 1 2;
24 40 40 0 1 -2;
26 42 42 0 1 0;
27 27 44 1 1 -3;
27 42 42 0 1 0;
27 44 44 0 1 2;
35 35 55 1 1 13;
17 39 39 0 1 -3;
18 41 41 0 1 -1;
22 44 44 0 1 2;
23 40 40 0 1 -2;
26 36 44 1 1 -4;
27 36 36 0 1 -6;
27 45 45 0 1 3;
29 47 47 0 1 5;
34 56 56 0 1 14;
25 43 43 0 1 1;
27 46 46 0 1 4;
33 49 49 0 1 7;
33 36 57 1 1 7;
38 40 40 0 1 -2;
12 37 37 0 1 -5;
15 15 40 1 1 -6;
28 47 47 0 1 5;
17 39 39 0 1 -3;
17 38 38 0 1 -4;
20 20 30 1 1 -9;
22 39 39 0 1 -3;
27 46 46 0 1 4;
28 48 48 0 1 6;
30 30 50 1 1 1;
23 23 39 1 1 -3;
25 42 42 0 1 0;
27 42 42 0 1 0;
28 28 40 1 1 -8;
29 45 45 0 1 3;
31 39 39 0 1 -3;
32 44 44 0 1 2;
34 53 53 0 1 11;
Nest Survival Group = 6 ;
7 7 14 1 1 0;
7 31 31 0 1 0;
20 24 24 0 1 0;
21 29 29 0 1 0;
21 31 31 1 1 0;
23 35 35 0 1 0;
26 26 27 1 1 0;
27 26 28 1 1 0;
9 19 23 1 1 0;
8 29 29 0 1 0;
10 10 20 1 1 0;
20 20 23 1 1 0;
20 28 28 0 1 0;
6 20 36 1 1 0;
33 37 37 0 1 0;
33 39 39 0 1 0;
7 28 28 0 1 0;
8 16 23 1 1 0;
20 31 37 1 1 0;
22 22 27 1 1 0;
21 26 27 1 1 0;
23 35 39 1 1 0;
proc estimate link=Logit NOLOOP varest=2ndPart    ;
model={ S.syi };
group=1 S    rows=1 cols=58 Square ;
1 1 1 1 1 1 1 1 1 1 1 1 1 1 1 1 1 1 1 1 1 1 1 1 1 1 1 1 1 1 1 1 1 1 1 1 1 1 1 1 1 1 1 1 1 1 1 1 1 1 1 1 1 1 1 1 1 1 ;
group=2 S    rows=1 cols=58 Square ;
2 2 2 2 2 2 2 2 2 2 2 2 2 2 2 2 2 2 2 2 2 2 2 2 2 2 2 2 2 2 2 2 2 2 2 2 2 2 2 2 2 2 2 2 2 2 2 2 2 2 2 2 2 2 2 2 2 2 ;
group=3 S    rows=1 cols=58 Square ;
3 3 3 3 3 3 3 3 3 3 3 3 3 3 3 3 3 3 3 3 3 3 3 3 3 3 3 3 3 3 3 3 3 3 3 3 3 3 3 3 3 3 3 3 3 3 3 3 3 3 3 3 3 3 3 3 3 3 ;
group=4 S    rows=1 cols=58 Square ;
4 4 4 4 4 4 4 4 4 4 4 4 4 4 4 4 4 4 4 4 4 4 4 4 4 4 4 4 4 4 4 4 4 4 4 4 4 4 4 4 4 4 4 4 4 4 4 4 4 4 4 4 4 4 4 4 4 4 ;
group=5 S    rows=1 cols=58 Square ;
5 5 5 5 5 5 5 5 5 5 5 5 5 5 5 5 5 5 5 5 5 5 5 5 5 5 5 5 5 5 5 5 5 5 5 5 5 5 5 5 5 5 5 5 5 5 5 5 5 5 5 5 5 5 5 5 5 5 ;
group=6 S    rows=1 cols=58 Square ;
6 6 6 6 6 6 6 6 6 6 6 6 6 6 6 6 6 6 6 6 6 6 6 6 6 6 6 6 6 6 6 6 6 6 6 6 6 6 6 6 6 6 6 6 6 6 6 6 6 6 6 6 6 6 6 6 6 6 ;
initial  3.879507 0.586571 -1.4038485 -0.1040022 0.484374 -1.0200119 0  ;
design matrix constraints=6 covariates=7;
1 0 0 0 0 0 Init;
1 1 0 0 0 0 Init;
1 0 1 0 0 0 Init;
1 0 0 1 0 0 Init;
1 0 0 0 1 0 Init;
1 0 0 0 0 1 Init;
blabel(1)=S:(Intercept);
blabel(2)=S:Year2021;
blabel(3)=S:Year2022;
blabel(4)=S:Year2023;
blabel(5)=S:Year2024;
blabel(6)=S:Year2025;
blabel(7)=S:Init;
rlabel(1)=S g2019 a0 t1;
rlabel(2)=S g2021 a0 t1;
rlabel(3)=S g2022 a0 t1;
rlabel(4)=S g2023 a0 t1;
rlabel(5)=S g2024 a0 t1;
rlabel(6)=S g2025 a0 t1;
proc stop;
